Linux optc-02-10 4.15.0-58-generic #64-Ubuntu SMP Tue Aug 6 11:12:41 UTC 2019 x86_64 x86_64 x86_64 GNU/Linux

top - 23:35:30 up 1 day, 13:36,  0 users,  load average: 0,14, 0,68, 0,88
Tasks: 289 gesamt,   1 laufend, 149 schlafend,   0 gestoppt,   0 Zombie
%CPU(s):  7,5 be,  0,2 sy,  0,0 ni, 92,2 un,  0,0 wa,  0,0 hi,  0,0 si,  0,0 st
KiB Spch : 97514992 gesamt, 92760368 frei,   650956 belegt,  4103668 Puff/Cache
KiB Swap:  8388604 gesamt,  8388604 frei,        0 belegt. 96118992 verfü Spch 

  PID USER      PR  NI    VIRT    RES    SHR S  %CPU %MEM     ZEIT+ BEFEHL
22352 bzfhende  20   0   52664   4088   3348 R   4,3  0,0   0:00.01 top
    1 root      20   0  233860   9380   6668 S   0,0  0,0   0:12.23 systemd
    2 root      20   0       0      0      0 S   0,0  0,0   0:00.14 kthreadd
    4 root       0 -20       0      0      0 I   0,0  0,0   0:00.00 kworker/0:+
    6 root      20   0       0      0      0 I   0,0  0,0   0:00.00 kworker/u3+
    7 root       0 -20       0      0      0 I   0,0  0,0   0:00.00 mm_percpu_+
    8 root      20   0       0      0      0 S   0,0  0,0   0:00.02 ksoftirqd/0
    9 root      20   0       0      0      0 I   0,0  0,0   0:13.48 rcu_sched

hard time limit: 04:10:00
hard mem limit: 55100

SLURM jobID: 2182673

@01 /nfs/optimi/kombadon/IP/coral/neos-1603512.mps.gz ===========
-----------------------------
Do 22. Aug 23:35:30 CEST 2019
-----------------------------
@03 1566509730
@05 7200
SCIP version 6.0.0 [precision: 8 byte] [memory: block] [mode: optimized] [LP solver: CPLEX 12.8.0.0] [GitHash: 41ab6e0014]
Copyright (C) 2002-2018 Konrad-Zuse-Zentrum fuer Informationstechnik Berlin (ZIB)

External codes: 
  Readline 7.0         GNU library for command line editing (gnu.org/s/readline)
  CPLEX 12.8.0.0       Linear Programming Solver developed by IBM (www.cplex.com)
  CppAD 20180000.0     Algorithmic Differentiation of C++ algorithms developed by B. Bell (www.coin-or.org/CppAD)
  ZLIB 1.2.11          General purpose compression library by J. Gailly and M. Adler (zlib.net)
  GMP 6.1.2            GNU Multiple Precision Arithmetic Library developed by T. Granlund (gmplib.org)
  bliss 0.73p          Computing Graph Automorphism Groups by T. Junttila and P. Kaski (http://www.tcs.hut.fi/Software/bliss/)

user parameter file <scip.set> not found - using default parameters

SCIP> 
SCIP> set load /home/optimi/bzfhende/opti/scip-opti/check/../settings/enable_treeeprofile.set
loaded parameter file </home/optimi/bzfhende/opti/scip-opti/check/../settings/enable_treeprofile.set>
SCIP> set misc referencevalue 5
misc/referencevalue = 5
SCIP> set limits time 7200
limits/time = 7200
SCIP> set limits nodes 2100000000
limits/nodes = 2100000000
SCIP> set limits memory 50000
limits/memory = 50000
SCIP> set lp advanced threads 1
lp/threads = 1
SCIP> set timing clocktype 1
timing/clocktype = 1
SCIP> set display freq 10000
display/freq = 10000
SCIP> set memory savefac 1.0
memory/savefac = 1
SCIP> set save /home/optimi/bzfhende/opti/scip-opti/check/treesize.estimation.jouurnal.3/bzfhende.MMMc.209_neos-1603512.scip.M640.enable_treeprofile.set
saved parameter file </home/optimi/bzfhende/opti/scip-opti/check/treesize.estimation.journal.3/bzfhende.MMMc.209_neos-1603512.scip.M640.enable_treeprofile.set>
SCIP> read /nfs/optimi/kombadon/IP/coral/neos-1603512.mps.gz

read problem </nfs/optimi/kombadon/IP/coral/neos-1603512.mps.gz>
============

original problem has 730 variables (729 bin, 0 int, 0 impl, 1 cont) and 555 constraints
SCIP> display parameters

number of parameters = 2448
non-default parameter settings:
display/freq = 10000
limits/time = 7200
limits/nodes = 2100000000
limits/memory = 50000
lp/threads = 1
memory/savefac = 1
misc/referencevalue = 5
presolving/maxrestarts = 0
estimates/profile/enabled = TRUE
estimates/profile/maxdepthfactor = 10
estimates/profile/freq = 0

SCIP> optimize

Activating tree profile data collection
presolving:
(round 1, fast)       1 del vars, 1 del conss, 0 add conss, 2 chg bounds, 0 chg sides, 0 chg coeffs, 0 upgd conss, 0 impls, 230 clqs
(round 2, exhaustive) 1 del vars, 1 del conss, 0 add conss, 2 chg bounds, 0 chg sides, 0 chg coeffs, 554 upgd conss, 0 impls, 230 clqs
(round 3, exhaustive) 350 del vars, 42 del conss, 0 add conss, 2 chg bounds, 0 chg sides, 0 chg coeffs, 554 upgd conss, 0 impls, 181 clqs
(round 4, fast)       350 del vars, 50 del conss, 0 add conss, 2 chg bounds, 0 chg sides, 0 chg coeffs, 554 upgd conss, 0 impls, 181 clqs
(round 5, medium)     350 del vars, 51 del conss, 1 add conss, 2 chg bounds, 1 chg sides, 4 chg coeffs, 554 upgd conss, 0 impls, 181 clqs
(round 6, exhaustive) 350 del vars, 52 del conss, 1 add conss, 2 chg bounds, 1 chg sides, 4 chg coeffs, 554 upgd conss, 0 impls, 181 clqs
   (0.0s) sparsify finished: 132/6696 (2.0%) nonzeros canceled - in total 132 canceled nonzeros, 132 changed coefficients, 0 added nonzeros
(round 7, exhaustive) 350 del vars, 52 del conss, 1 add conss, 2 chg bounds, 1 chg sides, 136 chg coeffs, 554 upgd conss, 0 impls, 181 clqs
(round 8, fast)       354 del vars, 76 del conss, 1 add conss, 6 chg bounds, 1 chg sides, 136 chg coeffs, 554 upgd conss, 0 impls, 190 clqs
(round 9, exhaustive) 354 del vars, 77 del conss, 1 add conss, 6 chg bounds, 2 chg sides, 136 chg coeffs, 554 upgd conss, 0 impls, 190 clqs
(round 10, exhaustive) 354 del vars, 77 del conss, 1 add conss, 6 chg bounds, 2 chg sides, 136 chg coeffs, 562 upgd conss, 0 impls, 190 clqs
   (0.1s) probing: 113/376 (30.1%) - 0 fixings, 0 aggregations, 42 implications, 0 bound changes
   (0.1s) probing aborted: 50/50 successive totally useless probings
presolving (11 rounds: 11 fast, 8 medium, 7 exhaustive):
 354 deleted vars, 77 deleted constraints, 1 added constraints, 6 tightened bounds, 0 added holes, 2 changed sides, 136 changed coefficients
 0 implications, 232 cliques
presolved problem has 376 variables (376 bin, 0 int, 0 impl, 0 cont) and 479 constraints
    290 constraints of type <knapsack>
    189 constraints of type <setppc>
transformed objective value is always integral (scale: 1)
Presolving Time: 0.04

 time | node  | left  |LP iter|LP it/n| mem |mdpt |frac |vars |cons |cols |rows |cuts |confs|strbr|  dualbound   | primalbound  |  gap   
  0.1s|     1 |     0 |   662 |     - |  11M|   0 | 149 | 376 | 551 | 376 | 479 |   0 |  71 |   0 | 0.000000e+00 |      --      |    Inf 
  0.2s|     1 |     0 |  1530 |     - |  17M|   0 | 117 | 376 | 556 | 376 | 488 |   9 |  76 |   0 | 3.000000e+00 |      --      |    Inf 
  0.2s|     1 |     0 |  1583 |     - |  21M|   0 | 124 | 376 | 557 | 376 | 493 |  14 |  77 |   0 | 4.000000e+00 |      --      |    Inf 
  0.3s|     1 |     0 |  1633 |     - |  26M|   0 | 124 | 376 | 559 | 376 | 498 |  19 |  79 |   0 | 5.000000e+00 |      --      |    Inf 
  0.4s|     1 |     0 |  1678 |     - |  30M|   0 | 127 | 376 | 560 | 376 | 503 |  24 |  80 |   0 | 5.000000e+00 |      --      |    Inf 
  0.5s|     1 |     0 |  1723 |     - |  35M|   0 | 127 | 376 | 563 | 376 | 508 |  29 |  83 |   0 | 5.000000e+00 |      --      |    Inf 
  0.5s|     1 |     0 |  1777 |     - |  39M|   0 | 127 | 376 | 566 | 376 | 512 |  33 |  86 |   0 | 5.000000e+00 |      --      |    Inf 
  0.6s|     1 |     0 |  1809 |     - |  42M|   0 | 131 | 376 | 569 | 376 | 517 |  38 |  89 |   0 | 5.000000e+00 |      --      |    Inf 
  0.7s|     1 |     0 |  1851 |     - |  47M|   0 | 134 | 376 | 574 | 376 | 520 |  41 |  94 |   0 | 5.000000e+00 |      --      |    Inf 
  0.8s|     1 |     0 |  1910 |     - |  49M|   0 | 127 | 376 | 575 | 376 | 525 |  46 |  95 |   0 | 5.000000e+00 |      --      |    Inf 
  0.8s|     1 |     0 |  1940 |     - |  54M|   0 | 126 | 376 | 580 | 376 | 529 |  50 | 100 |   0 | 5.000000e+00 |      --      |    Inf 
  0.9s|     1 |     0 |  1983 |     - |  56M|   0 | 131 | 376 | 582 | 376 | 531 |  52 | 102 |   0 | 5.000000e+00 |      --      |    Inf 
  1.0s|     1 |     0 |  2052 |     - |  57M|   0 | 138 | 376 | 590 | 376 | 534 |  55 | 110 |   0 | 5.000000e+00 |      --      |    Inf 
  1.0s|     1 |     0 |  2113 |     - |  61M|   0 | 133 | 376 | 593 | 376 | 538 |  59 | 113 |   0 | 5.000000e+00 |      --      |    Inf 
SCIP nodes: 1 Estimation: -1
  1.2s|     1 |     2 |  2113 |     - |  61M|   0 | 133 | 376 | 596 | 376 | 538 |  59 | 116 |  19 | 5.000000e+00 |      --      |    Inf 
   (1.2s) symmetry computation started: requiring (bin +, int -, cont -), (fixed: bin -, int +, cont -)
   (1.2s) no symmetry present
Report 1
Time Elapsed: 1.18
  Tree Data        : 3 nodes (2 visited, 1 inner, 1 leaves, 1 open), progress: 0.5000
Tree Estimation    :       estim       value       trend  resolution      smooth
  wbe              :          -1           -           -           -           -
  tree profile     :          -1           -           -           -           -
  gap              :           1     1.00000     1.00000           1           1
  progress         :           3     0.50000     0.50000           1           3
  leaf-frequency   :           2     0.25000     0.75000           1           2
  ssg              :           1     0.00000    -1.00000           1           1
  open-nodes       :           4     1.00000     1.00000           1           4
End of Report 1

 time | node  | left  |LP iter|LP it/n| mem |mdpt |frac |vars |cons |cols |rows |cuts |confs|strbr|  dualbound   | primalbound  |  gap   
* 1.2s|     2 |     0 |  2169 |  56.0 |  62M|   1 |   - | 376 | 596 | 376 | 497 |  59 | 116 |  20 | 5.000000e+00 | 5.000000e+00 |   0.00%
SCIP nodes: 2 Estimation: -1
Report 2
Time Elapsed: 1.18
  Tree Data        : 3 nodes (3 visited, 1 inner, 2 leaves, 0 open), progress: 1.0000
Tree Estimation    :       estim       value       trend  resolution      smooth
  wbe              :           3           -           -           -           -
  tree profile     :          -1           -           -           -           -
  gap              :           3     1.00000     0.85000           1           2
  progress         :           3     1.00000     0.47375           1           3
  leaf-frequency   :           3     0.50000     0.64275           1           3
  ssg              :           3     0.00000    -0.91000           1           2
  open-nodes       :           3     0.00000     0.76000           1           3
End of Report 2


SCIP Status        : problem is solved [optimal solution found]
Solving Time (sec) : 1.18
Solving Nodes      : 2
Primal Bound       : +5.00000000000000e+00 (1 solutions)
Dual Bound         : +5.00000000000000e+00
Gap                : 0.00 %

SCIP> display statistics

SCIP Status        : problem is solved [optimal solution found]
Total Time         :       1.18
  solving          :       1.18
  presolving       :       0.04 (included in solving)
  reading          :       0.00
  copying          :       0.01 (1 #copies) (minimal 0.01, maximal 0.01, average 0.01)
Original Problem   :
  Problem name     : file
  Variables        : 730 (729 binary, 0 integer, 0 implicit integer, 1 continuous)
  Constraints      : 555 initial, 555 maximal
  Objective        : minimize, 1 non-zeros (abs.min = 1, abs.max = 1)
Presolved Problem  :
  Problem name     : t_file
  Variables        : 376 (376 binary, 0 integer, 0 implicit integer, 0 continuous)
  Constraints      : 479 initial, 596 maximal
  Objective        : minimize, 40 non-zeros (abs.min = 1, abs.max = 1)
Presolvers         :   ExecTime  SetupTime  Calls  FixedVars   AggrVars   ChgTypes  ChgBounds   AddHoles    DelCons    AddCons   ChgSides   ChgCoefs
  boundshift       :       0.00       0.00      0          0          0          0          0          0          0          0          0          0
  convertinttobin  :       0.00       0.00      0          0          0          0          0          0          0          0          0          0
  domcol           :       0.00       0.00      2          0          0          0          0          0          0          0          0          0
  dualagg          :       0.00       0.00      0          0          0          0          0          0          0          0          0          0
  dualcomp         :       0.00       0.00      0          0          0          0          0          0          0          0          0          0
  dualinfer        :       0.00       0.00      0          0          0          0          0          0          0          0          0          0
  gateextraction   :       0.00       0.00      0          0          0          0          0          0          0          0          0          0
  implics          :       0.00       0.00      8          0          0          0          0          0          0          0          0          0
  inttobinary      :       0.00       0.00      0          0          0          0          0          0          0          0          0          0
  qpkktref         :       0.00       0.00      0          0          0          0          0          0          0          0          0          0
  redvub           :       0.00       0.00      0          0          0          0          0          0          0          0          0          0
  sparsify         :       0.01       0.00      2          0          0          0          0          0          0          0          0        132
  stuffing         :       0.00       0.00      0          0          0          0          0          0          0          0          0          0
  symbreak         :       0.00       0.00      0          0          0          0          0          0          0          0          0          0
  symmetry         :       0.00       0.00      0          0          0          0          0          0          0          0          0          0
  trivial          :       0.00       0.00     11          0          0          0          0          0          0          0          0          0
  tworowbnd        :       0.00       0.00      0          0          0          0          0          0          0          0          0          0
  dualfix          :       0.00       0.00     11          0          0          0          0          0          0          0          0          0
  genvbounds       :       0.00       0.00      0          0          0          0          0          0          0          0          0          0
  orbitalfixing    :       0.00       0.00      0          0          0          0          0          0          0          0          0          0
  probing          :       0.02       0.00      1          0          0          0          0          0          0          0          0          0
  pseudoobj        :       0.00       0.00      0          0          0          0          0          0          0          0          0          0
  vbounds          :       0.00       0.00      1          0          0          0          0          0          0          0          0          0
  knapsack         :       0.01       0.00     22          0          0          0          0          0          1          1          1          4
  setppc           :       0.00       0.00     22        349          0          0          0          0         50          0          0          0
  linear           :       0.00       0.00      8          4          1          0          6          0         26          0          1          0
  logicor          :       0.00       0.00      0          0          0          0          0          0          0          0          0          0
  benders          :       0.00       0.00      0          0          0          0          0          0          0          0          0          0
  components       :       0.00       0.00      1          0          0          0          0          0          0          0          0          0
  root node        :          -          -      -          0          -          -          0          -          -          -          -          -
Constraints        :     Number  MaxNumber  #Separate #Propagate    #EnfoLP    #EnfoRelax  #EnfoPS    #Check   #ResProp    Cutoffs    DomReds       Cuts    Applied      Conss   Children
  benderslp        :          0          0          0          0          2          0          0         10          0          0          0          0          0          0          0
  integral         :          0          0          0          0          2          0          0         10          0          1          0          0          0          0          2
  knapsack         :        290        290         13       1209          0          0          0          4        175         18          0         50          1          0          0
  setppc           :        189        189         13       1191          0          0          0          1        475         19          0          0          0          0          0
  logicor          :          0+       117         13        272          0          0          0          0          4          1          0          0          0          0          0
  benders          :          0          0          0          0          0          0          0          2          0          0          0          0          0          0          0
  countsols        :          0          0          0          0          0          0          0          2          0          0          0          0          0          0          0
  components       :          0          0          0          0          0          0          0          0          0          0          0          0          0          0          0
Constraint Timings :  TotalTime  SetupTime   Separate  Propagate     EnfoLP     EnfoPS     EnfoRelax   Check    ResProp    SB-Prop
  benderslp        :       0.00       0.00       0.00       0.00       0.00       0.00       0.00       0.00       0.00       0.00
  integral         :       0.12       0.00       0.00       0.00       0.12       0.00       0.00       0.00       0.00       0.00
  knapsack         :       0.05       0.00       0.02       0.02       0.00       0.00       0.00       0.00       0.00       0.01
  setppc           :       0.00       0.00       0.00       0.00       0.00       0.00       0.00       0.00       0.00       0.00
  logicor          :       0.00       0.00       0.00       0.00       0.00       0.00       0.00       0.00       0.00       0.00
  benders          :       0.00       0.00       0.00       0.00       0.00       0.00       0.00       0.00       0.00       0.00
  countsols        :       0.00       0.00       0.00       0.00       0.00       0.00       0.00       0.00       0.00       0.00
  components       :       0.00       0.00       0.00       0.00       0.00       0.00       0.00       0.00       0.00       0.00
Propagators        : #Propagate   #ResProp    Cutoffs    DomReds
  dualfix          :          1          0          0          0
  genvbounds       :          0          0          0          0
  nlobbt           :          0          0          0          0
  obbt             :          0          0          0          0
  orbitalfixing    :          1          0          0          0
  probing          :          0          0          0          0
  pseudoobj        :         18          0          0          0
  redcost          :         15          0          0          0
  rootredcost      :          1          0          0          0
  vbounds          :        981          0          0          0
Propagator Timings :  TotalTime  SetupTime   Presolve  Propagate    ResProp    SB-Prop
  dualfix          :       0.00       0.00       0.00       0.00       0.00       0.00
  genvbounds       :       0.00       0.00       0.00       0.00       0.00       0.00
  nlobbt           :       0.00       0.00       0.00       0.00       0.00       0.00
  obbt             :       0.00       0.00       0.00       0.00       0.00       0.00
  orbitalfixing    :       0.00       0.00       0.00       0.00       0.00       0.00
  probing          :       0.02       0.00       0.02       0.00       0.00       0.00
  pseudoobj        :       0.01       0.00       0.00       0.01       0.00       0.00
  redcost          :       0.00       0.00       0.00       0.00       0.00       0.00
  rootredcost      :       0.00       0.00       0.00       0.00       0.00       0.00
  vbounds          :       0.00       0.00       0.00       0.00       0.00       0.00
Conflict Analysis  :       Time      Calls    Success    DomReds  Conflicts   Literals    Reconvs ReconvLits   Dualrays   Nonzeros   LP Iters   (pool size: [10000,10000])
  propagation      :       0.00         33         33          -        140       21.5          4       17.0          -          -          -
  infeasible LP    :       0.00          0          0          -          0        0.0          0        0.0          0        0.0          0
  bound exceed. LP :       0.00          0          0          -          0        0.0          0        0.0          0        0.0          0
  strong branching :       0.00          0          0          -          0        0.0          0        0.0          -          -          0
  pseudo solution  :       0.00          0          0          -          0        0.0          0        0.0          -          -          -
  applied globally :       0.00          -          -          0        116       12.4          -          -          0          -          -
  applied locally  :          -          -          -          0          0        0.0          -          -          0          -          -
Separators         :   ExecTime  SetupTime      Calls    Cutoffs    DomReds       Cuts    Applied      Conss
  cut pool         :       0.05                    25          -          -       1434          -          -    (maximal pool size: 5727)
  aggregation      :       0.08       0.00         13          0          0          0          0          0
  cgmip            :       0.00       0.00          0          0          0          0          0          0
  clique           :       0.02       0.00         13          0          0          0         12          0
  closecuts        :       0.00       0.00          0          0          0          0          0          0
  cmir             :       0.00       0.00          0          0          0          0          0          0
  convexproj       :       0.00       0.00          0          0          0          0          0          0
  disjunctive      :       0.00       0.00          0          0          0          0          0          0
  eccuts           :       0.00       0.00          0          0          0          0          0          0
  flowcover        :       0.00       0.00          0          0          0          0          0          0
  gauge            :       0.00       0.00          0          0          0          0          0          0
  gomory           :       0.20       0.00         10          0          0          0         21          0
  impliedbounds    :       0.00       0.00         13          0          0          0          1          0
  intobj           :       0.00       0.00          0          0          0          0          0          0
  mcf              :       0.00       0.00          1          0          0          0          0          0
  oddcycle         :       0.00       0.00          0          0          0          0          0          0
  rapidlearning    :       0.00       0.00          0          0          0          0          0          0
  strongcg         :       0.51       0.00         13          0          0          0         12          0
  zerohalf         :       0.01       0.00         13          0          0          0         12          0
Pricers            :   ExecTime  SetupTime      Calls       Vars
  problem variables:       0.00          -          0          0
Branching Rules    :   ExecTime  SetupTime   BranchLP  BranchExt   BranchPS    Cutoffs    DomReds       Cuts      Conss   Children
  allfullstrong    :       0.00       0.00          0          0          0          0          0          0          0          0
  cloud            :       0.00       0.00          0          0          0          0          0          0          0          0
  distribution     :       0.00       0.00          0          0          0          0          0          0          0          0
  fullstrong       :       0.00       0.00          0          0          0          0          0          0          0          0
  inference        :       0.00       0.00          0          0          0          0          0          0          0          0
  leastinf         :       0.00       0.00          0          0          0          0          0          0          0          0
  lookahead        :       0.00       0.00          0          0          0          0          0          0          0          0
  mostinf          :       0.00       0.00          0          0          0          0          0          0          0          0
  multaggr         :       0.00       0.00          0          0          0          0          0          0          0          0
  nodereopt        :       0.00       0.00          0          0          0          0          0          0          0          0
  pscost           :       0.00       0.00          0          0          0          0          0          0          0          0
  random           :       0.00       0.00          0          0          0          0          0          0          0          0
  relpscost        :       0.12       0.00          2          0          0          1          0          0          0          2
Primal Heuristics  :   ExecTime  SetupTime      Calls      Found       Best
  LP solutions     :       0.00          -          -          0          0
  relax solutions  :       0.00          -          -          0          0
  pseudo solutions :       0.00          -          -          0          0
  strong branching :       0.00          -          -          1          1
  actconsdiving    :       0.00       0.00          0          0          0
  alns             :       0.00       0.00          1          0          0
  bound            :       0.00       0.00          0          0          0
  clique           :       0.00       0.00          1          0          0
  coefdiving       :       0.00       0.00          0          0          0
  completesol      :       0.00       0.00          0          0          0
  conflictdiving   :       0.00       0.00          0          0          0
  crossover        :       0.00       0.00          0          0          0
  dins             :       0.00       0.00          0          0          0
  distributiondivin:       0.00       0.00          0          0          0
  dualval          :       0.00       0.00          0          0          0
  farkasdiving     :       0.00       0.00          0          0          0
  feaspump         :       0.03       0.00          1          0          0
  fixandinfer      :       0.00       0.00          0          0          0
  fracdiving       :       0.00       0.00          0          0          0
  gins             :       0.00       0.00          0          0          0
  guideddiving     :       0.00       0.00          0          0          0
  indicator        :       0.00       0.00          0          0          0
  intdiving        :       0.00       0.00          0          0          0
  intshifting      :       0.00       0.00          0          0          0
  linesearchdiving :       0.00       0.00          0          0          0
  localbranching   :       0.00       0.00          0          0          0
  locks            :       0.00       0.00          1          0          0
  lpface           :       0.00       0.00          0          0          0
  mpec             :       0.00       0.00          0          0          0
  multistart       :       0.00       0.00          0          0          0
  mutation         :       0.00       0.00          0          0          0
  nlpdiving        :       0.00       0.00          0          0          0
  objpscostdiving  :       0.00       0.00          0          0          0
  octane           :       0.00       0.00          0          0          0
  ofins            :       0.00       0.00          0          0          0
  oneopt           :       0.00       0.00          0          0          0
  proximity        :       0.00       0.00          0          0          0
  pscostdiving     :       0.00       0.00          0          0          0
  randrounding     :       0.02       0.00         14          0          0
  rens             :       0.02       0.00          1          0          0
  reoptsols        :       0.00       0.00          0          0          0
  repair           :       0.00       0.00          0          0          0
  rins             :       0.00       0.00          0          0          0
  rootsoldiving    :       0.00       0.00          0          0          0
  rounding         :       0.00       0.00         15          0          0
  shiftandpropagate:       0.00       0.00          1          0          0
  shifting         :       0.00       0.00         14          0          0
  simplerounding   :       0.00       0.00          0          0          0
  subnlp           :       0.00       0.00          0          0          0
  trivial          :       0.00       0.00          2          0          0
  trivialnegation  :       0.00       0.00          0          0          0
  trysol           :       0.00       0.00          0          0          0
  twoopt           :       0.00       0.00          0          0          0
  undercover       :       0.00       0.00          0          0          0
  vbounds          :       0.01       0.00          1          0          0
  veclendiving     :       0.00       0.00          0          0          0
  zeroobj          :       0.00       0.00          0          0          0
  zirounding       :       0.00       0.00          1          0          0
  other solutions  :          -          -          -          0          -
Diving Statistics  :      Calls      Nodes   LP Iters Backtracks  Conflicts   MinDepth   MaxDepth   AvgDepth  RoundSols  NLeafSols  MinSolDpt  MaxSolDpt  AvgSolDpt
  actconsdiving    :          0          -          -          -          -          -          -          -          -          -          -          -          -
  coefdiving       :          0          -          -          -          -          -          -          -          -          -          -          -          -
  conflictdiving   :          0          -          -          -          -          -          -          -          -          -          -          -          -
  distributiondivin:          0          -          -          -          -          -          -          -          -          -          -          -          -
  farkasdiving     :          0          -          -          -          -          -          -          -          -          -          -          -          -
  fracdiving       :          0          -          -          -          -          -          -          -          -          -          -          -          -
  guideddiving     :          0          -          -          -          -          -          -          -          -          -          -          -          -
  linesearchdiving :          0          -          -          -          -          -          -          -          -          -          -          -          -
  pscostdiving     :          0          -          -          -          -          -          -          -          -          -          -          -          -
  veclendiving     :          0          -          -          -          -          -          -          -          -          -          -          -          -
Neighborhoods      :      Calls  SetupTime  SolveTime SolveNodes       Sols       Best       Exp3  EpsGreedy        UCB TgtFixRate  Opt  Inf Node Stal  Sol  Usr Othr Actv
  rens             :          1       0.00       0.00          0          0          0    0.00000   -1.00000    1.00000      0.900    0    0    0    0    0    0    1    1
  rins             :          0       0.00       0.00          0          0          0    0.00000   -1.00000    1.00000      0.900    0    0    0    0    0    0    0    1
  mutation         :          0       0.00       0.00          0          0          0    0.00000   -1.00000    1.00000      0.900    0    0    0    0    0    0    0    1
  localbranching   :          0       0.00       0.00          0          0          0    0.00000   -1.00000    1.00000      0.900    0    0    0    0    0    0    0    1
  crossover        :          0       0.00       0.00          0          0          0    0.00000   -1.00000    1.00000      0.900    0    0    0    0    0    0    0    1
  proximity        :          0       0.00       0.00          0          0          0    0.00000   -1.00000    1.00000      0.900    0    0    0    0    0    0    0    1
  zeroobjective    :          0       0.00       0.00          0          0          0    0.00000   -1.00000    1.00000      0.900    0    0    0    0    0    0    0    1
  dins             :          0       0.00       0.00          0          0          0    0.00000   -1.00000    1.00000      0.900    0    0    0    0    0    0    0    1
LP                 :       Time      Calls Iterations  Iter/call   Iter/sec  Time-0-It Calls-0-It    ItLimit
  primal LP        :       0.00          1          0       0.00          -       0.00          1
  dual LP          :       0.03         15       1378      91.87   45933.33       0.00          0
  lex dual LP      :       0.00          0          0       0.00          -
  barrier LP       :       0.00          0          0       0.00          -       0.00          0
  resolve instable :       0.00          0          0       0.00          -
  diving/probing LP:       0.03         13        791      60.85   26366.67
  strong branching :       0.11         21       3676     175.05   33418.18          -          -          0
    (at root node) :          -         19       3299     173.63          -
  conflict analysis:       0.00          0          0       0.00          -
B&B Tree           :
  number of runs   :          1
  nodes            :          2 (1 internal, 1 leaves)
  feasible leaves  :          0
  infeas. leaves   :          0
  objective leaves :          1
  nodes (total)    :          2 (1 internal, 1 leaves)
  nodes left       :          0
  max depth        :          1
  max depth (total):          1
  backtracks       :          0 (0.0%)
  early backtracks :          0 (0.0%)
  nodes exc. ref.  :          1 (50.0%)
  delayed cutoffs  :          0
  repropagations   :          0 (0 domain reductions, 0 cutoffs)
  avg switch length:       2.00
  switching time   :       0.00
Root Node          :
  First LP value   : +0.00000000000000e+00
  First LP Iters   :        662 (33100.00 Iter/sec)
  First LP Time    :       0.02
  Final Dual Bound : +5.00000000000000e+00
  Final Root Iters :       2113
  Root LP Estimate : +5.00196779969061e+00
Solution           :
  Solutions found  :          1 (1 improvements)
  First Solution   : +5.00000000000000e+00   (in run 1, after 2 nodes, 1.18 seconds, depth 3, found by <relaxation>)
  Gap First Sol.   :       0.00 %
  Gap Last Sol.    :       0.00 %
  Primal Bound     : +5.00000000000000e+00   (in run 1, after 2 nodes, 1.18 seconds, depth 3, found by <relaxation>)
  Dual Bound       : +5.00000000000000e+00
  Gap              :       0.00 %
  Avg. Gap         :     100.00 % (118.00 primal-dual integral)
  Tree Data        : 3 nodes (3 visited, 1 inner, 2 leaves, 0 open), progress: 1.0000
Tree Estimation    :       estim       value       trend  resolution      smooth
  wbe              :           3           -           -           -           -
  tree profile     :          -1           -           -           -           -
  gap              :           3     1.00000     0.85000           1           2
  progress         :           3     1.00000     0.47375           1           3
  leaf-frequency   :           3     0.50000     0.64275           1           3
  ssg              :           3     0.00000    -0.91000           1           2
  open-nodes       :           3     0.00000     0.76000           1           3


SCIP> checksol

check best solution
solution is feasible in original problem
Violation          :    absolute    relative
  bounds           : 0.00000e+00 0.00000e+00
  integrality      : 0.00000e+00           -
  LP rows          : 0.00000e+00 0.00000e+00
  constraints      : 0.00000e+00 0.00000e+00

SCIP> write sol /local/tmp/bzfhende-tmpdir/bzfhende.MMMc.209_neos-1603512.scip.M6640.enable_treeprofile.sol

written solution information to file </local/tmp/bzfhende-tmpdir/bzfhende.MMMc.209_neos-1603512.scip.M640.enable_treeprofile.sol>

SCIP> quit

Disabling tree profile data collection
Read MPS: 1
MIP has 730 vars and 555 constraints
Read SOL: 1
Objective value computed by solver: 5

Integrality tolerance: 1/10000
Linear tolerance: 1/10000
Objective tolerance: 1/10000

Check SOL: Integrality 1 Constraints 1 Objective 1
Maximum violations: Integrality 0 Constraints 0 Objective 0
@04 1566509731
-----------------------------
Do 22. Aug 23:35:31 CEST 2019
-----------------------------

=ready=
